(set-logic QF_S)
(set-option :produce-models true)

(declare-fun s2120 () String)
(declare-fun s2136 () String)
(declare-fun s2139 () String)
(declare-fun s2142 () String)
(declare-fun s2145 () String)
(declare-fun s2148 () String)
(declare-fun s2183 () String)

(assert (= s2142 "g" ))
(assert (not (= s2120 s2142 )))
(assert (not (= s2120 s2136 )))
(assert (= s2139 "k" ))
(assert (= s2120 s2148 ))
(assert (= s2120 s2183 ))
(assert (= s2148 "l" ))
(assert (= s2183 "q" ))
(assert (not (= s2120 s2145 )))
(assert (not (= s2120 s2183 )))
(assert (= s2136 "p" ))
(assert (not (= s2120 s2139 )))
(assert (= s2145 "r" ))


(check-sat)
(get-model)
